%%% static parameters %%%
timespan = 1;
Clients_N = [500];
Demand_W = [15];
Lt0 = [4];
Lt1 = [4];
SS_ = [0.85];
DS_D = [20];
K = [200];
MA = [500];
HC = [0.05];
%%% dynamic parameters %%%
lost_ratio_sales_ret_th = 0.00023414854011343688;
lost_ratio_sales_ret_w = 21;
lost_ratio_sales_dis_th = 0.000237353321044544;
lost_ratio_sales_dis_w = 31;
lost_ratio_sales_fac_th = 0.0005079741894856548;
lost_ratio_sales_fac_w = 64;
stock_customer_MA_mean_relative_th = 0.8262065303971629;
stock_customer_MA_mean_relative_w = 62;
stock_distributor_MA_mean_relative_th = 0.997353891828354;
stock_distributor_MA_mean_relative_w = 48;
stock_retailer_MA_mean_relative_th = 0.8256271672578107;
stock_retailer_MA_mean_relative_w = 31;
stock_factory_MA_mean_relative_th = 0.9311277176171525;
stock_factory_MA_mean_relative_w = 3;
